NAME : XML50_2173_01
COMMENT : Generated as the XML100 dataset from the CVRPLIB
TYPE : CVRP
DIMENSION : 51
EDGE_WEIGHT_TYPE : EUC_2D
CAPACITY : 132
NODE_COORD_SECTION
1    500  500 
2    80   770 
3    259  647 
4    929  795 
5    350  100 
6    634  463 
7    752  653 
8    667  48  
9    724  646 
10   743  748 
11   963  748 
12   411  939 
13   431  771 
14   251  969 
15   828  108 
16   247  712 
17   665  590 
18   636  398 
19   859  611 
20   132  917 
21   17   707 
22   550  993 
23   421  568 
24   391  170 
25   447  413 
26   595  613 
27   720  754 
28   166  738 
29   230  448 
30   781  325 
31   928  676 
32   408  680 
33   131  609 
34   807  990 
35   261  743 
36   935  218 
37   988  858 
38   472  658 
39   753  686 
40   893  666 
41   831  929 
42   984  460 
43   864  276 
44   732  675 
45   666  852 
46   441  932 
47   52   614 
48   882  122 
49   262  683 
50   96   568 
51   560  358 
DEMAND_SECTION
1    0   
2    1   
3    10  
4    10  
5    3   
6    10  
7    9   
8    8   
9    6   
10   4   
11   70  
12   51  
13   4   
14   3   
15   64  
16   4   
17   98  
18   4   
19   9   
20   2   
21   2   
22   95  
23   2   
24   1   
25   10  
26   1   
27   4   
28   3   
29   6   
30   3   
31   4   
32   5   
33   7   
34   3   
35   1   
36   5   
37   6   
38   10  
39   10  
40   68  
41   1   
42   9   
43   9   
44   5   
45   2   
46   5   
47   5   
48   1   
49   2   
50   2   
51   3   
DEPOT_SECTION
1
-1
EOF
